(set-logic QF_UF)
(declare-fun A0 () Bool)
(declare-fun A1 () Bool)
(declare-fun A2 () Bool)
(declare-fun A3 () Bool)
(declare-fun A4 () Bool)
(declare-fun A5 () Bool)
(declare-fun A6 () Bool)
(declare-fun A7 () Bool)
(declare-fun A8 () Bool)
(declare-fun A9 () Bool)
(declare-fun A10 () Bool)
(declare-fun A11 () Bool)
(declare-fun A12 () Bool)
(declare-fun A13 () Bool)
(declare-fun A14 () Bool)
(declare-fun A15 () Bool)
(declare-fun A16 () Bool)
(declare-fun A17 () Bool)
(declare-fun A18 () Bool)
(declare-fun A19 () Bool)
(declare-fun A20 () Bool)
(declare-fun A21 () Bool)
(declare-fun A22 () Bool)
(declare-fun A23 () Bool)
(declare-fun A24 () Bool)
(assert (let ((.def_0 (not A24))) (let ((.def_1 (and A12 .def_0))) (let ((.def_2 (not A6))) (let ((.def_3 (not A14))) (let ((.def_4 (or .def_3 .def_2))) (let ((.def_5 (not .def_4))) (let ((.def_6 (or .def_5 .def_1))) (let ((.def_7 (or A23 A18))) (let ((.def_8 (not .def_7))) (let ((.def_9 (or A15 A2))) (let ((.def_10 (or .def_9 .def_8))) (let ((.def_11 (and .def_10 .def_6))) (let ((.def_12 (not .def_11))) (let ((.def_13 (not A1))) (let ((.def_14 (or A12 .def_13))) (let ((.def_15 (= A1 A9))) (let ((.def_16 (or .def_15 .def_14))) (let ((.def_17 (not .def_16))) (let ((.def_18 (not A21))) (let ((.def_19 (and .def_18 .def_3))) (let ((.def_20 (not A3))) (let ((.def_21 (or .def_20 A7))) (let ((.def_22 (not .def_21))) (let ((.def_23 (and .def_22 .def_19))) (let ((.def_24 (not .def_23))) (let ((.def_25 (or .def_24 .def_17))) (let ((.def_26 (and .def_25 .def_12))) (let ((.def_27 (not A8))) (let ((.def_28 (or A23 .def_27))) (let ((.def_29 (or .def_0 A1))) (let ((.def_30 (and .def_29 .def_28))) (let ((.def_31 (not .def_30))) (let ((.def_32 (and A4 A7))) (let ((.def_33 (not .def_32))) (let ((.def_34 (and A8 .def_3))) (let ((.def_35 (and .def_34 .def_33))) (let ((.def_36 (or .def_35 .def_31))) (let ((.def_37 (not .def_36))) (let ((.def_38 (not A11))) (let ((.def_39 (not A17))) (let ((.def_40 (and .def_39 .def_38))) (let ((.def_41 (not A20))) (let ((.def_42 (and A8 .def_41))) (let ((.def_43 (or .def_42 .def_40))) (let ((.def_44 (and A16 A19))) (let ((.def_45 (and A0 A11))) (let ((.def_46 (not .def_45))) (let ((.def_47 (or .def_46 .def_44))) (let ((.def_48 (not .def_47))) (let ((.def_49 (and .def_48 .def_43))) (let ((.def_50 (not .def_49))) (let ((.def_51 (or .def_50 .def_37))) (let ((.def_52 (and .def_51 .def_26))) (let ((.def_53 (not .def_52))) (let ((.def_54 (or A22 A19))) (let ((.def_55 (not .def_54))) (let ((.def_56 (and A10 .def_39))) (let ((.def_57 (and .def_56 .def_55))) (let ((.def_58 (not .def_57))) (let ((.def_59 (not A13))) (let ((.def_60 (and A9 .def_59))) (let ((.def_61 (and A24 A6))) (let ((.def_62 (and .def_61 .def_60))) (let ((.def_63 (or .def_62 .def_58))) (let ((.def_64 (or A9 .def_2))) (let ((.def_65 (not .def_64))) (let ((.def_66 (not A18))) (let ((.def_67 (and A8 .def_66))) (let ((.def_68 (not .def_67))) (let ((.def_69 (or .def_68 .def_65))) (let ((.def_70 (not .def_69))) (let ((.def_71 (and A1 A21))) (let ((.def_72 (not .def_71))) (let ((.def_73 (not A23))) (let ((.def_74 (or .def_73 A4))) (let ((.def_75 (or .def_74 .def_72))) (let ((.def_76 (or .def_75 .def_70))) (let ((.def_77 (not .def_76))) (let ((.def_78 (or .def_77 .def_63))) (let ((.def_79 (= .def_59 A21))) (let ((.def_80 (not A19))) (let ((.def_81 (and .def_13 .def_80))) (let ((.def_82 (or .def_81 .def_79))) (let ((.def_83 (not .def_82))) (let ((.def_84 (not A4))) (let ((.def_85 (or A18 .def_84))) (let ((.def_86 (= .def_3 .def_0))) (let ((.def_87 (and .def_86 .def_85))) (let ((.def_88 (not .def_87))) (let ((.def_89 (or .def_88 .def_83))) (let ((.def_90 (not .def_89))) (let ((.def_91 (or .def_0 .def_20))) (let ((.def_92 (or A10 .def_38))) (let ((.def_93 (not .def_92))) (let ((.def_94 (= .def_93 .def_91))) (let ((.def_95 (not .def_94))) (let ((.def_96 (or .def_59 A9))) (let ((.def_97 (not .def_96))) (let ((.def_98 (or .def_66 A7))) (let ((.def_99 (and .def_98 .def_97))) (let ((.def_100 (not .def_99))) (let ((.def_101 (or .def_100 .def_95))) (let ((.def_102 (or .def_101 .def_90))) (let ((.def_103 (or .def_102 .def_78))) (let ((.def_104 (and .def_103 .def_53))) (let ((.def_105 (not .def_104))) (let ((.def_106 (not A7))) (let ((.def_107 (= .def_106 A1))) (let ((.def_108 (or A19 A2))) (let ((.def_109 (and .def_108 .def_107))) (let ((.def_110 (not .def_109))) (let ((.def_111 (not A12))) (let ((.def_112 (and .def_111 .def_18))) (let ((.def_113 (not .def_112))) (let ((.def_114 (or A4 A11))) (let ((.def_115 (not .def_114))) (let ((.def_116 (and .def_115 .def_113))) (let ((.def_117 (and .def_116 .def_110))) (let ((.def_118 (not A22))) (let ((.def_119 (and .def_118 .def_0))) (let ((.def_120 (or .def_111 A17))) (let ((.def_121 (and .def_120 .def_119))) (let ((.def_122 (not .def_121))) (let ((.def_123 (not A0))) (let ((.def_124 (and .def_123 A10))) (let ((.def_125 (not A2))) (let ((.def_126 (or .def_125 A14))) (let ((.def_127 (not .def_126))) (let ((.def_128 (= .def_127 .def_124))) (let ((.def_129 (not .def_128))) (let ((.def_130 (or .def_129 .def_122))) (let ((.def_131 (and .def_130 .def_117))) (let ((.def_132 (not .def_131))) (let ((.def_133 (and A14 A22))) (let ((.def_134 (not .def_133))) (let ((.def_135 (not A15))) (let ((.def_136 (or .def_135 A21))) (let ((.def_137 (not .def_136))) (let ((.def_138 (and .def_137 .def_134))) (let ((.def_139 (and .def_73 .def_0))) (let ((.def_140 (not .def_139))) (let ((.def_141 (and A17 A19))) (let ((.def_142 (not .def_141))) (let ((.def_143 (or .def_142 .def_140))) (let ((.def_144 (and .def_143 .def_138))) (let ((.def_145 (not A16))) (let ((.def_146 (or .def_145 A12))) (let ((.def_147 (and A15 A16))) (let ((.def_148 (not .def_147))) (let ((.def_149 (or .def_148 .def_146))) (let ((.def_150 (not .def_149))) (let ((.def_151 (and .def_20 A4))) (let ((.def_152 (not .def_151))) (let ((.def_153 (and .def_18 A6))) (let ((.def_154 (and .def_153 .def_152))) (let ((.def_155 (not .def_154))) (let ((.def_156 (= .def_155 .def_150))) (let ((.def_157 (and .def_156 .def_144))) (let ((.def_158 (or .def_157 .def_132))) (let ((.def_159 (or A24 A17))) (let ((.def_160 (not A5))) (let ((.def_161 (and .def_3 .def_160))) (let ((.def_162 (and .def_161 .def_159))) (let ((.def_163 (or .def_39 A17))) (let ((.def_164 (and .def_38 .def_13))) (let ((.def_165 (not .def_164))) (let ((.def_166 (or .def_165 .def_163))) (let ((.def_167 (not .def_166))) (let ((.def_168 (and .def_167 .def_162))) (let ((.def_169 (= .def_0 .def_59))) (let ((.def_170 (or A1 .def_0))) (let ((.def_171 (not .def_170))) (let ((.def_172 (= .def_171 .def_169))) (let ((.def_173 (not .def_172))) (let ((.def_174 (or A15 A9))) (let ((.def_175 (not .def_174))) (let ((.def_176 (and .def_20 A18))) (let ((.def_177 (or .def_176 .def_175))) (let ((.def_178 (not .def_177))) (let ((.def_179 (and .def_178 .def_173))) (let ((.def_180 (not .def_179))) (let ((.def_181 (or .def_180 .def_168))) (let ((.def_182 (or .def_123 .def_3))) (let ((.def_183 (not .def_182))) (let ((.def_184 (or .def_80 A4))) (let ((.def_185 (not .def_184))) (let ((.def_186 (or .def_185 .def_183))) (let ((.def_187 (not .def_186))) (let ((.def_188 (and .def_0 .def_59))) (let ((.def_189 (and A5 .def_18))) (let ((.def_190 (not .def_189))) (let ((.def_191 (and .def_190 .def_188))) (let ((.def_192 (or .def_191 .def_187))) (let ((.def_193 (not .def_192))) (let ((.def_194 (or A5 A18))) (let ((.def_195 (not A10))) (let ((.def_196 (or .def_66 .def_195))) (let ((.def_197 (or .def_196 .def_194))) (let ((.def_198 (not .def_197))) (let ((.def_199 (or .def_18 .def_160))) (let ((.def_200 (and .def_18 .def_84))) (let ((.def_201 (or .def_200 .def_199))) (let ((.def_202 (or .def_201 .def_198))) (let ((.def_203 (not .def_202))) (let ((.def_204 (and .def_203 .def_193))) (let ((.def_205 (or .def_204 .def_181))) (let ((.def_206 (not .def_205))) (let ((.def_207 (and .def_206 .def_158))) (let ((.def_208 (not .def_207))) (let ((.def_209 (or .def_208 .def_105))) (let ((.def_210 (or A16 .def_111))) (let ((.def_211 (not .def_210))) (let ((.def_212 (and .def_73 .def_84))) (let ((.def_213 (not .def_212))) (let ((.def_214 (and .def_213 .def_211))) (let ((.def_215 (not .def_214))) (let ((.def_216 (and .def_13 .def_41))) (let ((.def_217 (and A1 .def_27))) (let ((.def_218 (not .def_217))) (let ((.def_219 (or .def_218 .def_216))) (let ((.def_220 (not .def_219))) (let ((.def_221 (or .def_220 .def_215))) (let ((.def_222 (and .def_73 A11))) (let ((.def_223 (not .def_222))) (let ((.def_224 (or .def_0 A24))) (let ((.def_225 (and .def_224 .def_223))) (let ((.def_226 (or A18 A11))) (let ((.def_227 (not .def_79))) (let ((.def_228 (= .def_227 .def_226))) (let ((.def_229 (or .def_228 .def_225))) (let ((.def_230 (or .def_229 .def_221))) (let ((.def_231 (not .def_230))) (let ((.def_232 (and A16 .def_123))) (let ((.def_233 (or A2 A1))) (let ((.def_234 (= .def_233 .def_232))) (let ((.def_235 (or .def_84 .def_135))) (let ((.def_236 (and .def_39 A10))) (let ((.def_237 (= .def_236 .def_235))) (let ((.def_238 (and .def_237 .def_234))) (let ((.def_239 (not .def_238))) (let ((.def_240 (or A2 .def_84))) (let ((.def_241 (not .def_240))) (let ((.def_242 (and .def_39 .def_135))) (let ((.def_243 (not .def_242))) (let ((.def_244 (or .def_243 .def_241))) (let ((.def_245 (and .def_0 A10))) (let ((.def_246 (not .def_245))) (let ((.def_247 (or A1 .def_123))) (let ((.def_248 (not .def_247))) (let ((.def_249 (= .def_248 .def_246))) (let ((.def_250 (or .def_249 .def_244))) (let ((.def_251 (and .def_250 .def_239))) (let ((.def_252 (or .def_251 .def_231))) (let ((.def_253 (not .def_252))) (let ((.def_254 (and A4 A3))) (let ((.def_255 (and .def_127 .def_254))) (let ((.def_256 (not .def_255))) (let ((.def_257 (or A4 .def_0))) (let ((.def_258 (not .def_257))) (let ((.def_259 (and .def_59 A19))) (let ((.def_260 (or .def_259 .def_258))) (let ((.def_261 (not .def_260))) (let ((.def_262 (or .def_261 .def_256))) (let ((.def_263 (and .def_38 .def_66))) (let ((.def_264 (not .def_263))) (let ((.def_265 (and A13 .def_39))) (let ((.def_266 (or .def_265 .def_264))) (let ((.def_267 (or A18 .def_106))) (let ((.def_268 (not .def_267))) (let ((.def_269 (and A20 .def_66))) (let ((.def_270 (not .def_269))) (let ((.def_271 (and .def_270 .def_268))) (let ((.def_272 (and .def_271 .def_266))) (let ((.def_273 (or .def_272 .def_262))) (let ((.def_274 (not .def_273))) (let ((.def_275 (and .def_41 A17))) (let ((.def_276 (or .def_0 .def_111))) (let ((.def_277 (or .def_276 .def_275))) (let ((.def_278 (or .def_118 .def_59))) (let ((.def_279 (= .def_123 .def_80))) (let ((.def_280 (not .def_279))) (let ((.def_281 (and .def_280 .def_278))) (let ((.def_282 (or .def_281 .def_277))) (let ((.def_283 (and .def_59 .def_106))) (let ((.def_284 (not .def_283))) (let ((.def_285 (and A15 .def_145))) (let ((.def_286 (not .def_285))) (let ((.def_287 (and .def_286 .def_284))) (let ((.def_288 (not .def_287))) (let ((.def_289 (and .def_41 A12))) (let ((.def_290 (or A15 .def_3))) (let ((.def_291 (not .def_290))) (let ((.def_292 (or .def_291 .def_289))) (let ((.def_293 (and .def_292 .def_288))) (let ((.def_294 (not .def_293))) (let ((.def_295 (= .def_294 .def_282))) (let ((.def_296 (not .def_295))) (let ((.def_297 (and .def_296 .def_274))) (let ((.def_298 (or .def_297 .def_253))) (let ((.def_299 (or .def_118 A6))) (let ((.def_300 (not .def_299))) (let ((.def_301 (and A12 A4))) (let ((.def_302 (or .def_301 .def_300))) (let ((.def_303 (and .def_135 .def_111))) (let ((.def_304 (not .def_303))) (let ((.def_305 (or A6 .def_20))) (let ((.def_306 (not .def_305))) (let ((.def_307 (and .def_306 .def_304))) (let ((.def_308 (or .def_307 .def_302))) (let ((.def_309 (not .def_308))) (let ((.def_310 (not A9))) (let ((.def_311 (and A6 .def_310))) (let ((.def_312 (and .def_2 .def_111))) (let ((.def_313 (or .def_312 .def_311))) (let ((.def_314 (not .def_313))) (let ((.def_315 (and .def_160 A12))) (let ((.def_316 (and A20 .def_13))) (let ((.def_317 (or .def_316 .def_315))) (let ((.def_318 (= .def_317 .def_314))) (let ((.def_319 (not .def_318))) (let ((.def_320 (and .def_319 .def_309))) (let ((.def_321 (not .def_320))) (let ((.def_322 (and .def_3 A19))) (let ((.def_323 (and .def_106 A7))) (let ((.def_324 (not .def_323))) (let ((.def_325 (or .def_324 .def_322))) (let ((.def_326 (not .def_325))) (let ((.def_327 (or .def_106 A13))) (let ((.def_328 (not .def_327))) (let ((.def_329 (and A20 A9))) (let ((.def_330 (or .def_329 .def_328))) (let ((.def_331 (not .def_330))) (let ((.def_332 (and .def_331 .def_326))) (let ((.def_333 (not .def_332))) (let ((.def_334 (or A16 A24))) (let ((.def_335 (and .def_184 .def_334))) (let ((.def_336 (or .def_111 .def_84))) (let ((.def_337 (not .def_336))) (let ((.def_338 (or A9 .def_20))) (let ((.def_339 (and .def_338 .def_337))) (let ((.def_340 (not .def_339))) (let ((.def_341 (or .def_340 .def_335))) (let ((.def_342 (or .def_341 .def_333))) (let ((.def_343 (and .def_342 .def_321))) (let ((.def_344 (not .def_343))) (let ((.def_345 (or .def_27 .def_41))) (let ((.def_346 (not .def_345))) (let ((.def_347 (and .def_38 .def_84))) (let ((.def_348 (or .def_347 .def_346))) (let ((.def_349 (= .def_125 A24))) (let ((.def_350 (not .def_349))) (let ((.def_351 (and .def_145 A15))) (let ((.def_352 (not .def_351))) (let ((.def_353 (and .def_352 .def_350))) (let ((.def_354 (not .def_353))) (let ((.def_355 (or .def_354 .def_348))) (let ((.def_356 (or A19 .def_145))) (let ((.def_357 (and A24 .def_111))) (let ((.def_358 (not .def_357))) (let ((.def_359 (= .def_358 .def_356))) (let ((.def_360 (not .def_359))) (let ((.def_361 (or A9 A1))) (let ((.def_362 (and A22 A0))) (let ((.def_363 (or .def_362 .def_361))) (let ((.def_364 (not .def_363))) (let ((.def_365 (or .def_364 .def_360))) (let ((.def_366 (and .def_365 .def_355))) (let ((.def_367 (not .def_366))) (let ((.def_368 (or .def_66 A1))) (let ((.def_369 (or .def_195 A9))) (let ((.def_370 (not .def_369))) (let ((.def_371 (and .def_370 .def_368))) (let ((.def_372 (not .def_371))) (let ((.def_373 (and A8 .def_310))) (let ((.def_374 (and A21 A23))) (let ((.def_375 (not .def_374))) (let ((.def_376 (or .def_375 .def_373))) (let ((.def_377 (not .def_376))) (let ((.def_378 (and .def_377 .def_372))) (let ((.def_379 (not .def_378))) (let ((.def_380 (and A16 .def_125))) (let ((.def_381 (not .def_380))) (let ((.def_382 (or .def_13 A13))) (let ((.def_383 (and .def_382 .def_381))) (let ((.def_384 (not .def_383))) (let ((.def_385 (or A11 A9))) (let ((.def_386 (and A23 .def_84))) (let ((.def_387 (not .def_386))) (let ((.def_388 (or .def_387 .def_385))) (let ((.def_389 (not .def_388))) (let ((.def_390 (and .def_389 .def_384))) (let ((.def_391 (or .def_390 .def_379))) (let ((.def_392 (not .def_391))) (let ((.def_393 (or .def_392 .def_367))) (let ((.def_394 (or .def_393 .def_344))) (let ((.def_395 (not .def_394))) (let ((.def_396 (or .def_395 .def_298))) (let ((.def_397 (not .def_396))) (let ((.def_398 (and .def_397 .def_209))) .def_398))))))))))))))))))))))))))))))))))))))))))))))))))))))))))))))))))))))))))))))))))))))))))))))))))))))))))))))))))))))))))))))))))))))))))))))))))))))))))))))))))))))))))))))))))))))))))))))))))))))))))))))))))))))))))))))))))))))))))))))))))))))))))))))))))))))))))))))))))))))))))))))))))))))))))))))))))))))))))))))))))))))))))))))))))))))))))))))))))))))))))))))))))))))))))))))))))))))))))))))))
(check-sat)
